nN = 8;
nR = 32;
nH = 1;

a = [[16, 23, 19, 24, 20, 19, 15, 16, 23, 25, 17, 18, 22, 16, 17, 18, 19, 23, 25, 22, 16, 17, 15, 22, 21, 22, 24, 17, 16, 24, 19, 15], [20, 18, 21, 15, 18, 23, 16, 18, 22, 22, 18, 24, 20, 15, 15, 17, 23, 18, 25, 16, 20, 19, 23, 17, 22, 22, 17, 17, 17, 17, 17, 24], [25, 24, 20, 17, 22, 17, 25, 25, 16, 19, 15, 20, 20, 17, 20, 25, 20, 21, 20, 21, 19, 19, 15, 20, 18, 21, 21, 25, 21, 18, 15, 19], [18, 20, 16, 18, 15, 22, 18, 21, 17, 20, 22, 15, 20, 15, 17, 23, 15, 17, 21, 23, 18, 23, 23, 17, 16, 18, 25, 23, 24, 19, 25, 19], [17, 16, 19, 15, 18, 21, 19, 20, 23, 19, 19, 18, 18, 21, 15, 18, 18, 18, 21, 18, 17, 19, 22, 25, 18, 24, 18, 24, 16, 20, 17, 22], [17, 24, 18, 20, 16, 23, 23, 19, 17, 19, 16, 22, 17, 19, 23, 19, 24, 23, 25, 25, 19, 23, 22, 25, 15, 24, 22, 18, 20, 23, 19, 16], [16, 15, 18, 17, 17, 15, 19, 15, 22, 22, 15, 17, 25, 23, 20, 15, 22, 24, 20, 23, 16, 17, 15, 20, 21, 16, 20, 25, 24, 20, 20, 24], [15, 22, 24, 17, 19, 20, 23, 24, 18, 16, 25, 22, 17, 15, 21, 15, 15, 15, 21, 16, 21, 23, 17, 19, 25, 21, 24, 19, 17, 18, 15, 15]];
c = [[[0, 0, 0, 0, 0, 0, 0, 0, 0, 0, 0, 0, 0, 0, 0, 0, 0, 0, 0, 0, 0, 0, 0, 0, 0, 0, 0, 0, 0, 0, 0, 0], [33, 35, 45, 50, 40, 49, 31, 32, 48, 36, 49, 32, 44, 46, 46, 31, 50, 37, 33, 32, 44, 45, 37, 36, 43, 35, 44, 39, 35, 50, 43, 49], [46, 38, 38, 46, 37, 45, 47, 42, 38, 40, 42, 41, 42, 30, 31, 36, 50, 37, 48, 50, 32, 49, 37, 32, 36, 47, 45, 30, 47, 41, 39, 32], [41, 45, 45, 37, 39, 30, 32, 38, 35, 36, 45, 43, 33, 43, 35, 48, 41, 36, 42, 46, 48, 36, 34, 43, 35, 44, 48, 42, 33, 35, 40, 49], [50, 33, 40, 41, 41, 43, 35, 49, 42, 46, 39, 34, 48, 50, 49, 34, 38, 44, 36, 46, 40, 46, 39, 32, 45, 42, 33, 47, 32, 36, 50, 42], [46, 41, 34, 46, 30, 36, 40, 38, 43, 45, 36, 39, 38, 42, 42, 31, 50, 36, 34, 36, 37, 47, 40, 40, 41, 39, 45, 49, 42, 48, 32, 30], [49, 49, 33, 38, 33, 40, 50, 38, 35, 33, 34, 30, 30, 49, 40, 31, 37, 45, 32, 36, 36, 43, 37, 44, 40, 37, 40, 47, 37, 47, 33, 50], [35, 48, 47, 42, 46, 46, 33, 34, 34, 38, 40, 47, 46, 48, 37, 38, 50, 44, 38, 49, 34, 39, 33, 40, 34, 35, 50, 32, 42, 46, 33, 37]], [[0, 0, 0, 0, 0, 0, 0, 0, 0, 0, 0, 0, 0, 0, 0, 0, 0, 0, 0, 0, 0, 0, 0, 0, 0, 0, 0, 0, 0, 0, 0, 0], [0, 0, 0, 0, 0, 0, 0, 0, 0, 0, 0, 0, 0, 0, 0, 0, 0, 0, 0, 0, 0, 0, 0, 0, 0, 0, 0, 0, 0, 0, 0, 0], [45, 30, 38, 41, 39, 37, 33, 45, 48, 49, 45, 37, 43, 34, 35, 37, 39, 45, 33, 50, 44, 35, 37, 45, 50, 33, 48, 38, 50, 45, 50, 48], [35, 32, 43, 42, 35, 50, 48, 42, 42, 39, 46, 45, 40, 44, 44, 42, 35, 40, 47, 32, 30, 35, 30, 32, 48, 47, 50, 31, 38, 47, 41, 49], [42, 30, 33, 38, 47, 33, 31, 50, 48, 32, 37, 30, 43, 41, 48, 40, 32, 37, 43, 32, 41, 37, 44, 31, 38, 49, 40, 40, 45, 38, 41, 40], [47, 48, 42, 40, 50, 48, 39, 49, 42, 39, 41, 48, 49, 40, 43, 31, 38, 32, 35, 31, 36, 37, 43, 40, 36, 43, 47, 39, 46, 33, 42, 34], [41, 36, 49, 45, 50, 37, 44, 43, 41, 47, 43, 41, 43, 41, 31, 36, 45, 43, 41, 37, 49, 44, 31, 46, 48, 30, 40, 30, 48, 45, 44, 48], [42, 31, 37, 45, 38, 44, 43, 40, 42, 30, 45, 49, 43, 46, 34, 48, 43, 30, 43, 37, 33, 50, 41, 48, 39, 45, 45, 45, 48, 37, 30, 37]], [[0, 0, 0, 0, 0, 0, 0, 0, 0, 0, 0, 0, 0, 0, 0, 0, 0, 0, 0, 0, 0, 0, 0, 0, 0, 0, 0, 0, 0, 0, 0, 0], [0, 0, 0, 0, 0, 0, 0, 0, 0, 0, 0, 0, 0, 0, 0, 0, 0, 0, 0, 0, 0, 0, 0, 0, 0, 0, 0, 0, 0, 0, 0, 0], [0, 0, 0, 0, 0, 0, 0, 0, 0, 0, 0, 0, 0, 0, 0, 0, 0, 0, 0, 0, 0, 0, 0, 0, 0, 0, 0, 0, 0, 0, 0, 0], [47, 36, 46, 43, 40, 46, 48, 34, 40, 39, 39, 36, 49, 37, 32, 34, 38, 43, 44, 31, 31, 41, 47, 46, 47, 35, 50, 41, 48, 49, 33, 30], [37, 44, 37, 31, 31, 30, 43, 35, 45, 49, 30, 47, 48, 44, 36, 48, 38, 37, 31, 42, 47, 35, 36, 37, 47, 35, 37, 38, 33, 45, 47, 41], [38, 33, 48, 43, 49, 39, 45, 49, 30, 49, 41, 49, 37, 38, 34, 36, 30, 45, 36, 46, 37, 32, 46, 37, 42, 44, 43, 34, 37, 36, 36, 36], [43, 42, 42, 34, 32, 44, 32, 46, 41, 39, 49, 42, 44, 44, 31, 41, 43, 40, 30, 31, 43, 48, 46, 46, 38, 38, 34, 40, 46, 30, 45, 50], [37, 42, 43, 50, 44, 38, 37, 31, 50, 37, 34, 39, 39, 30, 50, 32, 32, 47, 47, 49, 41, 46, 31, 42, 39, 38, 50, 33, 39, 44, 43, 41]], [[0, 0, 0, 0, 0, 0, 0, 0, 0, 0, 0, 0, 0, 0, 0, 0, 0, 0, 0, 0, 0, 0, 0, 0, 0, 0, 0, 0, 0, 0, 0, 0], [0, 0, 0, 0, 0, 0, 0, 0, 0, 0, 0, 0, 0, 0, 0, 0, 0, 0, 0, 0, 0, 0, 0, 0, 0, 0, 0, 0, 0, 0, 0, 0], [0, 0, 0, 0, 0, 0, 0, 0, 0, 0, 0, 0, 0, 0, 0, 0, 0, 0, 0, 0, 0, 0, 0, 0, 0, 0, 0, 0, 0, 0, 0, 0], [0, 0, 0, 0, 0, 0, 0, 0, 0, 0, 0, 0, 0, 0, 0, 0, 0, 0, 0, 0, 0, 0, 0, 0, 0, 0, 0, 0, 0, 0, 0, 0], [43, 30, 50, 45, 45, 39, 45, 34, 43, 39, 39, 49, 34, 41, 31, 41, 39, 31, 36, 50, 44, 38, 47, 34, 33, 50, 40, 30, 45, 38, 40, 42], [45, 35, 34, 40, 49, 44, 42, 49, 41, 46, 48, 40, 38, 36, 36, 50, 30, 47, 34, 39, 48, 35, 47, 33, 33, 45, 33, 33, 49, 49, 37, 43], [47, 35, 42, 49, 41, 40, 37, 31, 45, 40, 46, 40, 36, 49, 33, 47, 49, 38, 41, 45, 31, 36, 36, 41, 34, 46, 30, 40, 47, 41, 37, 50], [39, 36, 32, 34, 40, 32, 30, 48, 35, 45, 38, 45, 31, 44, 42, 30, 33, 31, 32, 44, 46, 43, 39, 47, 36, 40, 45, 39, 48, 40, 44, 31]], [[0, 0, 0, 0, 0, 0, 0, 0, 0, 0, 0, 0, 0, 0, 0, 0, 0, 0, 0, 0, 0, 0, 0, 0, 0, 0, 0, 0, 0, 0, 0, 0], [0, 0, 0, 0, 0, 0, 0, 0, 0, 0, 0, 0, 0, 0, 0, 0, 0, 0, 0, 0, 0, 0, 0, 0, 0, 0, 0, 0, 0, 0, 0, 0], [0, 0, 0, 0, 0, 0, 0, 0, 0, 0, 0, 0, 0, 0, 0, 0, 0, 0, 0, 0, 0, 0, 0, 0, 0, 0, 0, 0, 0, 0, 0, 0], [0, 0, 0, 0, 0, 0, 0, 0, 0, 0, 0, 0, 0, 0, 0, 0, 0, 0, 0, 0, 0, 0, 0, 0, 0, 0, 0, 0, 0, 0, 0, 0], [0, 0, 0, 0, 0, 0, 0, 0, 0, 0, 0, 0, 0, 0, 0, 0, 0, 0, 0, 0, 0, 0, 0, 0, 0, 0, 0, 0, 0, 0, 0, 0], [35, 32, 39, 36, 37, 30, 43, 47, 41, 46, 35, 50, 33, 38, 30, 41, 39, 35, 44, 33, 34, 39, 36, 35, 40, 40, 31, 34, 46, 46, 35, 32], [44, 38, 34, 43, 43, 35, 45, 36, 34, 39, 33, 45, 35, 36, 50, 41, 44, 41, 44, 41, 46, 38, 33, 40, 44, 41, 33, 35, 32, 44, 34, 37], [31, 44, 49, 33, 36, 42, 30, 34, 40, 37, 50, 30, 33, 44, 49, 47, 38, 41, 46, 47, 35, 39, 50, 33, 30, 37, 31, 44, 45, 42, 34, 45]], [[0, 0, 0, 0, 0, 0, 0, 0, 0, 0, 0, 0, 0, 0, 0, 0, 0, 0, 0, 0, 0, 0, 0, 0, 0, 0, 0, 0, 0, 0, 0, 0], [0, 0, 0, 0, 0, 0, 0, 0, 0, 0, 0, 0, 0, 0, 0, 0, 0, 0, 0, 0, 0, 0, 0, 0, 0, 0, 0, 0, 0, 0, 0, 0], [0, 0, 0, 0, 0, 0, 0, 0, 0, 0, 0, 0, 0, 0, 0, 0, 0, 0, 0, 0, 0, 0, 0, 0, 0, 0, 0, 0, 0, 0, 0, 0], [0, 0, 0, 0, 0, 0, 0, 0, 0, 0, 0, 0, 0, 0, 0, 0, 0, 0, 0, 0, 0, 0, 0, 0, 0, 0, 0, 0, 0, 0, 0, 0], [0, 0, 0, 0, 0, 0, 0, 0, 0, 0, 0, 0, 0, 0, 0, 0, 0, 0, 0, 0, 0, 0, 0, 0, 0, 0, 0, 0, 0, 0, 0, 0], [0, 0, 0, 0, 0, 0, 0, 0, 0, 0, 0, 0, 0, 0, 0, 0, 0, 0, 0, 0, 0, 0, 0, 0, 0, 0, 0, 0, 0, 0, 0, 0], [35, 45, 43, 43, 33, 48, 30, 44, 41, 39, 32, 36, 49, 40, 46, 38, 36, 39, 34, 35, 43, 31, 39, 32, 34, 36, 32, 32, 49, 39, 37, 39], [31, 50, 48, 47, 38, 41, 46, 36, 46, 44, 45, 38, 40, 47, 35, 31, 48, 41, 33, 42, 35, 50, 41, 35, 32, 40, 41, 30, 30, 50, 31, 39]], [[0, 0, 0, 0, 0, 0, 0, 0, 0, 0, 0, 0, 0, 0, 0, 0, 0, 0, 0, 0, 0, 0, 0, 0, 0, 0, 0, 0, 0, 0, 0, 0], [0, 0, 0, 0, 0, 0, 0, 0, 0, 0, 0, 0, 0, 0, 0, 0, 0, 0, 0, 0, 0, 0, 0, 0, 0, 0, 0, 0, 0, 0, 0, 0], [0, 0, 0, 0, 0, 0, 0, 0, 0, 0, 0, 0, 0, 0, 0, 0, 0, 0, 0, 0, 0, 0, 0, 0, 0, 0, 0, 0, 0, 0, 0, 0], [0, 0, 0, 0, 0, 0, 0, 0, 0, 0, 0, 0, 0, 0, 0, 0, 0, 0, 0, 0, 0, 0, 0, 0, 0, 0, 0, 0, 0, 0, 0, 0], [0, 0, 0, 0, 0, 0, 0, 0, 0, 0, 0, 0, 0, 0, 0, 0, 0, 0, 0, 0, 0, 0, 0, 0, 0, 0, 0, 0, 0, 0, 0, 0], [0, 0, 0, 0, 0, 0, 0, 0, 0, 0, 0, 0, 0, 0, 0, 0, 0, 0, 0, 0, 0, 0, 0, 0, 0, 0, 0, 0, 0, 0, 0, 0], [0, 0, 0, 0, 0, 0, 0, 0, 0, 0, 0, 0, 0, 0, 0, 0, 0, 0, 0, 0, 0, 0, 0, 0, 0, 0, 0, 0, 0, 0, 0, 0], [44, 35, 48, 41, 47, 38, 45, 40, 31, 43, 50, 47, 36, 44, 43, 34, 47, 48, 50, 43, 50, 38, 45, 43, 48, 41, 48, 32, 36, 41, 45, 45]], [[0, 0, 0, 0, 0, 0, 0, 0, 0, 0, 0, 0, 0, 0, 0, 0, 0, 0, 0, 0, 0, 0, 0, 0, 0, 0, 0, 0, 0, 0, 0, 0], [0, 0, 0, 0, 0, 0, 0, 0, 0, 0, 0, 0, 0, 0, 0, 0, 0, 0, 0, 0, 0, 0, 0, 0, 0, 0, 0, 0, 0, 0, 0, 0], [0, 0, 0, 0, 0, 0, 0, 0, 0, 0, 0, 0, 0, 0, 0, 0, 0, 0, 0, 0, 0, 0, 0, 0, 0, 0, 0, 0, 0, 0, 0, 0], [0, 0, 0, 0, 0, 0, 0, 0, 0, 0, 0, 0, 0, 0, 0, 0, 0, 0, 0, 0, 0, 0, 0, 0, 0, 0, 0, 0, 0, 0, 0, 0], [0, 0, 0, 0, 0, 0, 0, 0, 0, 0, 0, 0, 0, 0, 0, 0, 0, 0, 0, 0, 0, 0, 0, 0, 0, 0, 0, 0, 0, 0, 0, 0], [0, 0, 0, 0, 0, 0, 0, 0, 0, 0, 0, 0, 0, 0, 0, 0, 0, 0, 0, 0, 0, 0, 0, 0, 0, 0, 0, 0, 0, 0, 0, 0], [0, 0, 0, 0, 0, 0, 0, 0, 0, 0, 0, 0, 0, 0, 0, 0, 0, 0, 0, 0, 0, 0, 0, 0, 0, 0, 0, 0, 0, 0, 0, 0], [0, 0, 0, 0, 0, 0, 0, 0, 0, 0, 0, 0, 0, 0, 0, 0, 0, 0, 0, 0, 0, 0, 0, 0, 0, 0, 0, 0, 0, 0, 0, 0]]];

q = [[[9], [20], [14], [17], [13], [17], [12], [10], [11], [12], [6], [5], [24], [6], [21], [23], [11], [16], [19], [14], [18], [22], [12], [10], [25], [10], [25], [21], [23], [25], [16], [20]], [[14], [16], [14], [25], [24], [23], [8], [24], [22], [11], [10], [25], [24], [19], [14], [8], [23], [17], [15], [25], [25], [13], [6], [14], [21], [20], [11], [10], [21], [17], [7], [23]], [[17], [17], [21], [20], [5], [14], [16], [25], [11], [22], [9], [9], [22], [23], [19], [14], [18], [17], [24], [18], [8], [14], [19], [22], [10], [24], [21], [10], [16], [9], [6], [9]], [[25], [18], [11], [5], [23], [18], [21], [23], [17], [19], [10], [24], [20], [20], [5], [12], [21], [16], [17], [24], [5], [9], [24], [17], [21], [18], [6], [24], [19], [13], [9], [21]], [[15], [9], [10], [24], [12], [5], [19], [11], [17], [22], [16], [16], [5], [25], [6], [8], [8], [14], [11], [8], [12], [24], [7], [25], [6], [5], [19], [23], [9], [11], [13], [10]], [[21], [19], [8], [17], [13], [8], [16], [8], [13], [20], [22], [10], [15], [22], [16], [23], [10], [24], [9], [20], [21], [21], [6], [16], [22], [15], [22], [8], [15], [17], [16], [6]], [[25], [12], [21], [6], [18], [20], [10], [14], [11], [5], [23], [13], [13], [8], [5], [10], [10], [18], [17], [24], [22], [10], [7], [6], [5], [23], [15], [10], [11], [18], [15], [11]], [[25], [10], [7], [9], [21], [15], [7], [16], [17], [21], [24], [25], [11], [13], [7], [20], [24], [25], [9], [5], [25], [21], [7], [13], [20], [10], [15], [8], [20], [10], [8], [22]]];
Q = [[50], [54], [50], [53], [42], [49], [43], [49]];
